 Minimize
[ 1.0000000000000000 Z0 * Z21  ]
Subject to
c1: [ 1.0000000000000000 Z0 * Z15  + 1.0000000000000000 Z0 * Z16  + 1.0000000000000000 Z0 * Z17 -1.0000000000000000 Z0 * Z18 -1.0000000000000000 Z0 * Z19 -1.0000000000000000 Z0 * Z20  ] = 0.000000
c2: [ -1.0000000000000000 Z0 * Z1 -1.0000000000000000 Z0 * Z2  + 1.0000000000000000 Z0 * Z5  + 1.0000000000000000 Z0 * Z8 -1.0000000000000000 Z0 * Z15  + 1.0000000000000000 Z0 * Z18  ] = 0.000000
c3: [ -1.0000000000000000 Z0 * Z3  + 1.0000000000000000 Z0 * Z11 -1.0000000000000000 Z0 * Z16  + 1.0000000000000000 Z0 * Z19  ] = 0.000000
c4: [ -1.0000000000000000 Z0 * Z4  + 1.0000000000000000 Z0 * Z12 -1.0000000000000000 Z0 * Z17  + 1.0000000000000000 Z0 * Z20  ] = 0.000000
c5: [ 1.0000000000000000 Z0 * Z1 -1.0000000000000000 Z0 * Z5 -1.0000000000000000 Z0 * Z6 -1.0000000000000000 Z0 * Z7  + 1.0000000000000000 Z0 * Z9  + 1.0000000000000000 Z0 * Z13  ] = 0.000000
c6: [ 1.0000000000000000 Z0 * Z2  + 1.0000000000000000 Z0 * Z6 -1.0000000000000000 Z0 * Z8 -1.0000000000000000 Z0 * Z9 -1.0000000000000000 Z0 * Z10  + 1.0000000000000000 Z0 * Z14  ] = 0.000000
c7: [ 1.0000000000000000 Z0 * Z3  + 1.0000000000000000 Z0 * Z4  + 1.0000000000000000 Z0 * Z7  + 1.0000000000000000 Z0 * Z10 -1.0000000000000000 Z0 * Z11 -1.0000000000000000 Z0 * Z12 -1.0000000000000000 Z0 * Z13 -1.0000000000000000 Z0 * Z14  ] = 0.000000
c8: [ 1.0000000000000000 Z0 * Z1  + 2.0000000000000000 Z0 * Z2  + 3.0000000000000000 Z0 * Z3  + 1.0000000000000000 Z0 * Z4  + 2.0000000000000000 Z0 * Z5  + 1.0000000000000000 Z0 * Z6  + 1.0000000000000000 Z0 * Z7  + 3.0000000000000000 Z0 * Z8  + 2.0000000000000000 Z0 * Z9  + 1.0000000000000000 Z0 * Z10  + 2.0000000000000000 Z0 * Z11  + 2.0000000000000000 Z0 * Z12  + 1.0000000000000000 Z0 * Z13  + 3.0000000000000000 Z0 * Z14 -19.0000000000000000 Z0 * Z15 -27.0000000000000000 Z0 * Z16 -30.0000000000000000 Z0 * Z17  + 1.0000000000000000 Z0 * Z18  + 2.0000000000000000 Z0 * Z19  + 1.5000000000000000 Z0 * Z20 -1.0000000000000000 Z0 * Z21  + 0.1666666666666670 Z1 * Z22  + 0.0666666666666667 Z2 * Z23  + 0.1000000000000000 Z3 * Z24  + 0.1333333333333330 Z4 * Z25  + 0.1000000000000000 Z5 * Z26  + 0.0333333333333333 Z6 * Z27  + 0.0333333333333333 Z7 * Z28  + 0.1666666666666670 Z8 * Z29  + 0.0666666666666667 Z9 * Z30  + 0.3333333333333330 Z10 * Z31  + 0.0833333333333333 Z11 * Z32  + 0.0666666666666667 Z12 * Z33  + 0.3000000000000000 Z13 * Z34  + 0.2666666666666670 Z14 * Z35  + 0.1000000000000000 Z15 * Z15  + 0.0050000000000000 Z16 * Z16  + 0.1500000000000000 Z17 * Z17  + 0.5000000000000000 Z18 * Z18  + 0.4000000000000000 Z19 * Z19  + 0.3000000000000000 Z20 * Z20  ] = 0.000000
ac1: Z0 - 1 = 0
ac2: [ 1.0000000000000000 Z0 * Z22 -1.0000000000000000 Z1 * Z1  ] = 0
ac3: [ 1.0000000000000000 Z0 * Z23 -1.0000000000000000 Z2 * Z2  ] = 0
ac4: [ 1.0000000000000000 Z0 * Z24 -1.0000000000000000 Z3 * Z3  ] = 0
ac5: [ 1.0000000000000000 Z0 * Z25 -1.0000000000000000 Z4 * Z4  ] = 0
ac6: [ 1.0000000000000000 Z0 * Z26 -1.0000000000000000 Z5 * Z5  ] = 0
ac7: [ 1.0000000000000000 Z0 * Z27 -1.0000000000000000 Z6 * Z6  ] = 0
ac8: [ 1.0000000000000000 Z0 * Z28 -1.0000000000000000 Z7 * Z7  ] = 0
ac9: [ 1.0000000000000000 Z0 * Z29 -1.0000000000000000 Z8 * Z8  ] = 0
ac10: [ 1.0000000000000000 Z0 * Z30 -1.0000000000000000 Z9 * Z9  ] = 0
ac11: [ 1.0000000000000000 Z0 * Z31 -1.0000000000000000 Z10 * Z10  ] = 0
ac12: [ 1.0000000000000000 Z0 * Z32 -1.0000000000000000 Z11 * Z11  ] = 0
ac13: [ 1.0000000000000000 Z0 * Z33 -1.0000000000000000 Z12 * Z12  ] = 0
ac14: [ 1.0000000000000000 Z0 * Z34 -1.0000000000000000 Z13 * Z13  ] = 0
ac15: [ 1.0000000000000000 Z0 * Z35 -1.0000000000000000 Z14 * Z14  ] = 0
Bounds
1 <= Z0 <= 1
0.0000000000000000 <= Z1 <= 100000000.0000000000000000
0.0000000000000000 <= Z2 <= 100000000.0000000000000000
0.0000000000000000 <= Z3 <= 100000000.0000000000000000
0.0000000000000000 <= Z4 <= 100000000.0000000000000000
0.0000000000000000 <= Z5 <= 100000000.0000000000000000
0.0000000000000000 <= Z6 <= 100000000.0000000000000000
0.0000000000000000 <= Z7 <= 100000000.0000000000000000
0.0000000000000000 <= Z8 <= 100000000.0000000000000000
0.0000000000000000 <= Z9 <= 100000000.0000000000000000
0.0000000000000000 <= Z10 <= 100000000.0000000000000000
0.0000000000000000 <= Z11 <= 100000000.0000000000000000
0.0000000000000000 <= Z12 <= 100000000.0000000000000000
0.0000000000000000 <= Z13 <= 100000000.0000000000000000
0.0000000000000000 <= Z14 <= 100000000.0000000000000000
0.0000000000000000 <= Z15 <= 100000000.0000000000000000
0.0000000000000000 <= Z16 <= 100000000.0000000000000000
0.0000000000000000 <= Z17 <= 100000000.0000000000000000
0.0000000000000000 <= Z18 <= 100000000.0000000000000000
0.0000000000000000 <= Z19 <= 100000000.0000000000000000
0.0000000000000000 <= Z20 <= 100000000.0000000000000000
-100000000.0000000000000000 <= Z21 <= 100000000.0000000000000000
0.0000000000000000 <= Z22 <= 10000000000000000.0000000000000000
0.0000000000000000 <= Z23 <= 10000000000000000.0000000000000000
0.0000000000000000 <= Z24 <= 10000000000000000.0000000000000000
0.0000000000000000 <= Z25 <= 10000000000000000.0000000000000000
0.0000000000000000 <= Z26 <= 10000000000000000.0000000000000000
0.0000000000000000 <= Z27 <= 10000000000000000.0000000000000000
0.0000000000000000 <= Z28 <= 10000000000000000.0000000000000000
0.0000000000000000 <= Z29 <= 10000000000000000.0000000000000000
0.0000000000000000 <= Z30 <= 10000000000000000.0000000000000000
0.0000000000000000 <= Z31 <= 10000000000000000.0000000000000000
0.0000000000000000 <= Z32 <= 10000000000000000.0000000000000000
0.0000000000000000 <= Z33 <= 10000000000000000.0000000000000000
0.0000000000000000 <= Z34 <= 10000000000000000.0000000000000000
0.0000000000000000 <= Z35 <= 10000000000000000.0000000000000000
End